p wcnf 105 127 128 
1 -14 -7 0 
1 -65 50 0 
1 -87 -75 0 
1 78 -87 0 
1 -104 62 0 
1 95 -82 0 
1 -11 3 0 
1 1 -86 0 
1 82 -94 0 
1 4 -76 0 
1 -89 11 0 
1 -76 -83 0 
1 66 79 0 
1 -72 -77 0 
1 70 95 0 
1 88 77 0 
1 55 22 0 
1 -32 -42 0 
1 -72 52 0 
1 -31 -20 0 
1 91 2 0 
1 -50 47 0 
1 -7 -64 0 
1 31 -4 0 
1 -30 58 0 
1 45 -90 0 
1 99 -44 0 
1 29 38 0 
1 86 -93 0 
1 58 -23 0 
1 -49 -97 0 
1 38 70 0 
1 -62 -19 0 
1 -70 -28 0 
1 66 -96 0 
1 -48 -12 0 
1 96 -75 0 
1 -52 -31 0 
1 -16 93 0 
1 -58 67 0 
1 11 -81 0 
1 38 72 0 
1 -77 96 0 
1 -35 60 0 
1 59 82 0 
1 -71 75 0 
1 52 -32 0 
1 102 10 0 
1 53 -22 0 
1 -41 31 0 
1 33 97 0 
1 -26 11 0 
1 -36 71 0 
1 -84 -103 0 
1 27 96 0 
1 -102 -10 0 
1 -83 -20 0 
1 47 -68 0 
1 83 -48 0 
1 89 30 0 
1 71 42 0 
1 13 64 0 
1 -13 -100 0 
1 -20 44 0 
1 -5 13 0 
1 61 59 0 
1 71 -100 0 
1 -11 5 0 
1 61 43 0 
1 -96 -86 0 
1 -61 59 0 
1 98 89 0 
1 -73 -45 0 
1 18 76 0 
1 34 -102 0 
1 36 4 0 
1 -38 76 0 
1 -29 5 0 
1 40 -37 0 
1 -92 39 0 
1 68 44 0 
1 -27 -16 0 
1 64 75 0 
1 -95 50 0 
1 89 98 0 
1 95 -76 0 
1 -84 -69 0 
1 33 101 0 
1 7 -89 0 
1 4 37 0 
1 25 -21 0 
1 -50 101 0 
1 100 -97 0 
1 54 -85 0 
1 25 86 0 
1 24 -45 0 
1 -90 79 0 
1 -92 7 0 
1 55 59 0 
1 82 -9 0 
1 -68 -16 0 
1 -69 54 0 
1 3 63 0 
1 45 -47 0 
1 100 -28 0 
1 31 -30 0 
1 -102 -39 0 
1 -89 -84 0 
1 -61 28 0 
1 26 63 0 
1 28 -103 0 
1 -15 -28 0 
1 42 64 0 
1 64 -97 0 
1 -24 -68 0 
1 -102 -18 0 
1 -32 28 0 
1 -17 -85 0 
1 -6 38 0 
1 92 -75 0 
1 102 33 0 
1 -65 14 0 
1 -32 74 0 
1 17 1 0 
1 -8 -69 0 
1 -20 -3 0 
1 27 46 0 
